20
1 0 19
2 0 23
2 1 27
3 0 35
3 1 38
3 2 47
4 0 3
4 1 16
4 2 12
4 3 43
5 0 8
5 1 38
5 2 5
5 3 39
5 4 10
6 0 4
6 1 42
6 2 22
6 3 50
6 4 40
6 5 46
7 0 48
7 1 42
7 2 6
7 3 48
7 4 22
7 5 44
7 6 26
8 0 14
8 1 45
8 2 5
8 3 32
8 4 45
8 5 22
8 6 47
8 7 46
9 0 29
9 1 47
9 2 32
9 3 32
9 4 18
9 5 38
9 6 19
9 7 47
9 8 39
10 0 3
10 1 46
10 2 27
10 3 37
10 4 47
10 5 30
10 6 27
10 7 26
10 8 24
10 9 31
11 0 18
11 1 32
11 2 13
11 3 44
11 4 34
11 5 24
11 6 50
11 7 6
11 8 7
11 9 38
11 10 21
12 0 3
12 1 42
12 2 24
12 3 20
12 4 19
12 5 9
12 6 39
12 7 11
12 8 12
12 9 24
12 10 44
12 11 14
13 0 28
13 1 17
13 2 48
13 3 20
13 4 6
13 5 43
13 6 39
13 7 9
13 8 12
13 9 3
13 10 23
13 11 24
13 12 26
14 0 49
14 1 19
14 2 8
14 3 18
14 4 35
14 5 23
14 6 36
14 7 29
14 8 43
14 9 11
14 10 24
14 11 35
14 12 27
14 13 9
15 0 12
15 1 44
15 2 38
15 3 35
15 4 43
15 5 7
15 6 42
15 7 18
15 8 1
15 9 33
15 10 2
15 11 11
15 12 46
15 13 17
15 14 44
16 0 42
16 1 12
16 2 29
16 3 33
16 4 38
16 5 50
16 6 18
16 7 48
16 8 36
16 9 23
16 10 39
16 11 23
16 12 6
16 13 13
16 14 34
16 15 12
17 0 15
17 1 7
17 2 19
17 3 11
17 4 26
17 5 13
17 6 1
17 7 37
17 8 45
17 9 43
17 10 21
17 11 10
17 12 42
17 13 31
17 14 31
17 15 6
17 16 17
18 0 7
18 1 6
18 2 32
18 3 16
18 4 18
18 5 25
18 6 26
18 7 9
18 8 41
18 9 24
18 10 37
18 11 40
18 12 7
18 13 45
18 14 10
18 15 44
18 16 47
18 17 27
19 0 32
19 1 21
19 2 14
19 3 41
19 4 24
19 5 25
19 6 17
19 7 31
19 8 36
19 9 48
19 10 36
19 11 42
19 12 9
19 13 20
19 14 38
19 15 20
19 16 47
19 17 30
19 18 34
